Please solve the following SAT Problem encoded in DIMACS format, only return a single solution assignment without explanations, if there is any: 
p cnf 10 60
-6 -8 -3 0
-9 1 6 0
5 9 -8 0
5 1 -4 0
-2 6 -3 0
-9 7 -3 0
6 -5 7 0
10 1 7 0
5 10 7 0
-8 5 6 0
-9 -6 8 0
-3 -2 10 0
-4 7 6 0
-7 -2 3 0
-8 -9 -2 0
-6 2 -9 0
4 10 5 0
1 -4 10 0
8 1 -4 0
-6 7 -5 0
-3 -8 7 0
5 -3 -6 0
7 -8 10 0
-9 8 7 0
-9 2 -6 0
7 10 -9 0
10 -9 -4 0
1 -6 10 0
-2 -9 -6 0
-10 6 -4 0
-2 5 10 0
-2 -4 1 0
-9 10 -7 0
7 -9 -4 0
-8 -9 -7 0
1 5 10 0
7 -10 -6 0
-6 10 -3 0
8 10 -4 0
-7 -2 -4 0
-8 1 -9 0
-8 4 -3 0
10 7 -9 0
-8 4 -3 0
8 7 5 0
-3 8 10 0
7 5 -2 0
10 7 -2 0
-6 5 -9 0
10 7 1 0
-6 -2 1 0
8 -6 -9 0
-4 -3 -2 0
7 10 5 0
-6 -9 10 0
3 -2 -9 0
7 -2 5 0
10 -3 7 0
-10 -4 -9 0
9 -6 8 0

